Welcome to the CBC MILP Solver 
Version: 2.10.10 
Build Date: Apr 19 2023 

command line - cbc /tmp/d626479c23d7463b81320f2a26ad3dcb-pulp.mps max sec 15 timeMode elapsed branch printingOptions all solution /tmp/d626479c23d7463b81320f2a26ad3dcb-pulp.sol (default strategy 1)
At line 2 NAME          MODEL
At line 3 ROWS
At line 25012 COLUMNS
At line 94430 RHS
At line 119438 BOUNDS
At line 126439 ENDATA
Problem MODEL has 25007 rows, 7000 columns and 68345 elements
Coin0008I MODEL read with 0 errors
seconds was changed from 1e+100 to 15
Option for timeMode changed from cpu to elapsed
Presolve 4632 (-20375) rows, 1839 (-5161) columns and 12457 (-55888) elements
Perturbing problem by 0.001% of 1 - largest nonzero change 0.00098452026 ( 0.18903873%) - largest zero change 0.00098387631
0  Obj 4 Primal inf 110.66162 (75) Dual inf 28.959718 (52)
167  Obj 16.956761 Primal inf 194.69991 (222)
334  Obj 16.945148 Primal inf 132.41364 (162)
501  Obj 16.939251 Primal inf 140.15516 (155)
668  Obj 16.934934 Primal inf 153.05233 (189)
835  Obj 16.932331 Primal inf 51.076896 (65)
931  Obj 16.931758
Optimal - objective value 17
After Postsolve, objective 17, infeasibilities - dual 0 (0), primal 0 (0)
Optimal objective 17 - 931 iterations time 0.022, Presolve 0.01
Option for printingOptions changed from normal to all
Total time (CPU seconds):       0.26   (Wallclock seconds):       0.12

Welcome to the CBC MILP Solver 
Version: 2.10.10 
Build Date: Apr 19 2023 

command line - cbc /tmp/b891f2f7a5304a3ab6254e5445ae33b3-pulp.mps max sec 15 timeMode elapsed branch printingOptions all solution /tmp/b891f2f7a5304a3ab6254e5445ae33b3-pulp.sol (default strategy 1)
At line 2 NAME          MODEL
At line 3 ROWS
At line 25012 COLUMNS
At line 108430 RHS
At line 133438 BOUNDS
At line 140439 ENDATA
Problem MODEL has 25007 rows, 7000 columns and 68345 elements
Coin0008I MODEL read with 0 errors
seconds was changed from 1e+100 to 15
Option for timeMode changed from cpu to elapsed
Continuous objective value is 17 - 0.12 seconds
Cgl0002I 3092 variables fixed
Cgl0003I 396 fixed, 0 tightened bounds, 3629 strengthened rows, 1002 substitutions
Cgl0003I 0 fixed, 0 tightened bounds, 1379 strengthened rows, 38 substitutions
Cgl0003I 18 fixed, 0 tightened bounds, 2207 strengthened rows, 0 substitutions
Cgl0003I 30 fixed, 0 tightened bounds, 1550 strengthened rows, 0 substitutions
Cgl0003I 2 fixed, 0 tightened bounds, 1392 strengthened rows, 0 substitutions
Cgl0003I 0 fixed, 0 tightened bounds, 756 strengthened rows, 0 substitutions
Cgl0003I 0 fixed, 0 tightened bounds, 1057 strengthened rows, 78 substitutions
Cgl0003I 13 fixed, 0 tightened bounds, 677 strengthened rows, 0 substitutions
Cgl0003I 0 fixed, 0 tightened bounds, 155 strengthened rows, 0 substitutions
Cgl0003I 0 fixed, 0 tightened bounds, 237 strengthened rows, 0 substitutions
Cgl0003I 0 fixed, 0 tightened bounds, 90 strengthened rows, 0 substitutions
Cgl0003I 0 fixed, 0 tightened bounds, 36 strengthened rows, 0 substitutions
Cgl0003I 0 fixed, 0 tightened bounds, 24 strengthened rows, 0 substitutions
Cgl0003I 0 fixed, 0 tightened bounds, 24 strengthened rows, 0 substitutions
Cgl0004I processed model has 1750 rows, 1235 columns (1235 integer (1216 of which binary)) and 10478 elements
Cbc0038I Initial state - 16 integers unsatisfied sum - 8
Cbc0038I Pass   1: suminf.    7.00000 (14) obj. 17 iterations 341
Cbc0038I Solution found of 17
Cbc0038I Cleaned solution of 17
Cbc0038I Before mini branch and bound, 1214 integers at bound fixed and 0 continuous
Cbc0038I Mini branch and bound did not improve solution (0.47 seconds)
Cbc0038I After 0.47 seconds - Feasibility pump exiting with objective of 17 - took 0.02 seconds
Cbc0012I Integer solution of 17 found by feasibility pump after 0 iterations and 0 nodes (0.47 seconds)
Cbc0001I Search completed - best objective 16.9999999999997, took 0 iterations and 0 nodes (0.47 seconds)
Cbc0035I Maximum depth 0, 0 variables fixed on reduced cost
Cuts at root node changed objective from 17 to 17
Probing was tried 0 times and created 0 cuts of which 0 were active after adding rounds of cuts (0.000 seconds)
Gomory was tried 0 times and created 0 cuts of which 0 were active after adding rounds of cuts (0.000 seconds)
Knapsack was tried 0 times and created 0 cuts of which 0 were active after adding rounds of cuts (0.000 seconds)
Clique was tried 0 times and created 0 cuts of which 0 were active after adding rounds of cuts (0.000 seconds)
MixedIntegerRounding2 was tried 0 times and created 0 cuts of which 0 were active after adding rounds of cuts (0.000 seconds)
FlowCover was tried 0 times and created 0 cuts of which 0 were active after adding rounds of cuts (0.000 seconds)
TwoMirCuts was tried 0 times and created 0 cuts of which 0 were active after adding rounds of cuts (0.000 seconds)
ZeroHalf was tried 0 times and created 0 cuts of which 0 were active after adding rounds of cuts (0.000 seconds)

Result - Optimal solution found

Objective value:                17.00000000
Enumerated nodes:               0
Total iterations:               0
Time (CPU seconds):             0.57
Time (Wallclock seconds):       0.51

Option for printingOptions changed from normal to all
Total time (CPU seconds):       0.82   (Wallclock seconds):       0.59

All files deleted successfully.
